(set-info :smt-lib-version 2.6)
(set-logic AUFBVFPDTNIRA)
(set-info :source |
Generated by: AdaCore
Generated on: 2020-03-06
Generator: SPARK
Application: Program verification for Ada
Target solver: Z3
|)
(set-info :license "https://creativecommons.org/licenses/by/4.0/")
(set-info :category "industrial")
(set-info :status unknown)
;;; generated by SMT-LIB2 driver
;;; SMT-LIB2 driver: bit-vectors, common part
;;; SMT-LIB2: integer arithmetic
(declare-sort string 0)

(declare-datatypes () ((tuple0 (Tuple0))))
(declare-sort us_private 0)

(declare-fun private__bool_eq (us_private us_private) Bool)

(declare-const us_null_ext__ us_private)

(declare-sort us_type_of_heap 0)

(declare-datatypes ()
((us_type_of_heap__ref
 (us_type_of_heap__refqtmk (us_type_of_heap__content us_type_of_heap)))))
(declare-sort us_image 0)

(declare-datatypes () ((int__ref (int__refqtmk (int__content Int)))))
(declare-datatypes () ((bool__ref (bool__refqtmk (bool__content Bool)))))
(declare-datatypes ()
((us_fixed__ref (us_fixed__refqtmk (us_fixed__content Int)))))
(declare-datatypes () ((real__ref (real__refqtmk (real__content Real)))))
(declare-datatypes ()
((us_private__ref (us_private__refqtmk (us_private__content us_private)))))
(define-fun int__ref___projection ((a int__ref)) Int (int__content a))

(define-fun us_fixed__ref___projection ((a us_fixed__ref)) Int (us_fixed__content
                                                               a))

(define-fun bool__ref___projection ((a bool__ref)) Bool (bool__content a))

(define-fun real__ref___projection ((a real__ref)) Real (real__content a))

(define-fun us_private__ref___projection ((a us_private__ref)) us_private 
  (us_private__content a))

(declare-sort integer 0)

(declare-fun integerqtint (integer) Int)

;; integer'axiom
  (assert
  (forall ((i integer))
  (and (<= (- 2147483648) (integerqtint i)) (<= (integerqtint i) 2147483647))))

(define-fun in_range ((x Int)) Bool (and (<= (- 2147483648) x)
                                    (<= x 2147483647)))

(declare-fun attr__ATTRIBUTE_IMAGE (Int) us_image)

(declare-fun attr__ATTRIBUTE_VALUE__pre_check (us_image) Bool)

(declare-fun attr__ATTRIBUTE_VALUE (us_image) Int)

(declare-fun user_eq (integer integer) Bool)

(declare-const dummy integer)

(declare-datatypes ()
((integer__ref (integer__refqtmk (integer__content integer)))))
(define-fun integer__ref_integer__content__projection ((a integer__ref)) integer 
  (integer__content a))

(define-fun to_rep ((x integer)) Int (integerqtint x))

(declare-fun of_rep (Int) integer)

;; inversion_axiom
  (assert
  (forall ((x integer)) (! (= (of_rep (to_rep x)) x) :pattern ((to_rep x)) )))

;; range_axiom
  (assert
  (forall ((x integer)) (! (in_range (to_rep x)) :pattern ((to_rep x)) )))

;; coerce_axiom
  (assert
  (forall ((x Int))
  (! (=> (in_range x) (= (to_rep (of_rep x)) x)) :pattern ((to_rep
                                                           (of_rep x))) )))

(declare-datatypes ()
((us_split_fields
 (us_split_fieldsqtmk (rec__types__t1__j integer)(rec__ext__ us_private)))))
(define-fun us_split_fields_rec__types__t1__j__projection ((a us_split_fields)) integer 
  (rec__types__t1__j a))

(define-fun us_split_fields_rec__ext____projection ((a us_split_fields)) us_private 
  (rec__ext__ a))

(declare-datatypes ()
((us_split_fields__ref
 (us_split_fields__refqtmk (us_split_fields__content us_split_fields)))))
(define-fun us_split_fields__ref___split_fields__content__projection ((a us_split_fields__ref)) us_split_fields 
  (us_split_fields__content a))

(declare-datatypes ()
((us_rep (us_repqtmk (us_split_fields1 us_split_fields)(attr__tag Int)))))
(define-fun us_rep___split_fields__projection ((a us_rep)) us_split_fields 
  (us_split_fields1 a))

(define-fun us_rep_attr__tag__projection ((a us_rep)) Int (attr__tag a))

(define-fun bool_eq ((a us_rep)
  (b us_rep)) Bool (ite (= (to_rep (rec__types__t1__j (us_split_fields1 a))) 
                   (to_rep (rec__types__t1__j (us_split_fields1 b)))) true
                   false))

(declare-fun us_dispatch_eq (us_rep us_rep) Bool)

(declare-const us_tag Int)

(declare-const value__size Int)

(declare-const object__size Int)

(declare-const alignment Int)

;; value__size_axiom
  (assert (<= 0 value__size))

;; object__size_axiom
  (assert (<= 0 object__size))

;; alignment_axiom
  (assert (<= 0 alignment))

(declare-const types__t1__j__first__bit Int)

(declare-const types__t1__j__last__bit Int)

(declare-const types__t1__j__position Int)

;; types__t1__j__first__bit_axiom
  (assert (<= 0 types__t1__j__first__bit))

;; types__t1__j__last__bit_axiom
  (assert (< types__t1__j__first__bit types__t1__j__last__bit))

;; types__t1__j__position_axiom
  (assert (<= 0 types__t1__j__position))

(declare-fun user_eq1 (us_rep us_rep) Bool)

(declare-const dummy1 us_rep)

(declare-datatypes () ((t2__ref (t2__refqtmk (t2__content us_rep)))))
(define-fun t2__ref_t2__content__projection ((a t2__ref)) us_rep (t2__content
                                                                 a))

(declare-fun check__ (us_rep) Bool)

(declare-fun check____function_guard (Bool us_rep) Bool)

(declare-fun check__1 (Int us_rep) Bool)

(declare-fun check____function_guard1 (Bool Int us_rep) Bool)

(declare-const x__attr__tag Int)

(declare-const attr__ATTRIBUTE_ADDRESS Int)

(define-fun default_initial_assumption ((temp___expr_182 us_rep)
  (temp___skip_top_level_183 Bool)) Bool (= (attr__tag temp___expr_182) 
  us_tag))

(define-fun in_range1 ((x Int)) Bool (or (= x 0) (= x 1)))

(declare-fun attr__ATTRIBUTE_IMAGE1 (Bool) us_image)

(declare-fun attr__ATTRIBUTE_VALUE__pre_check1 (us_image) Bool)

(declare-fun attr__ATTRIBUTE_VALUE1 (us_image) Bool)

;; check____post_axiom
  (assert true)

;; check____post__dispatch_axiom
  (assert true)

;; types__t2__compat_axiom
  (assert
  (forall ((x us_rep))
  (! (=> (check____function_guard1 (check__1 us_tag x) us_tag x)
     (and (forall ((x1 us_rep)) (check____function_guard (check__ x1) x1))
     (= (ite (check__ x) 1 0) (ite (check__1 us_tag x) 1 0)))) :pattern (
  (check__1 us_tag x)) )))

;; check____def_axiom
  (assert
  (forall ((x us_rep))
  (! (not (= (check__ x) true)) :pattern ((check__ x)) )))

(declare-const x__split_fields us_split_fields)

;; Assume
  (assert true)

;; H
  (assert
  (forall ((x__split_fields1 us_split_fields)) (check____function_guard
  (check__ (us_repqtmk x__split_fields1 x__attr__tag))
  (us_repqtmk x__split_fields1 x__attr__tag))))

(assert
;; defqtvc
 ;; File "types.ads", line 10, characters 0-0
  (not (= (check__ (us_repqtmk x__split_fields x__attr__tag)) true)))
(check-sat)
